WARNING: for repeatability, setting FPU to use double precision
============================[ Problem Statistics ]=============================
|                                                                             |
|  Number of variables:           100                                         |
|  Number of clauses:             449                                         |
|  Parse time:                   0.00 s                                       |
|  Simplification time:          0.00 s                                       |
|                                                                             |
============================[ Search Statistics ]==============================
| Conflicts |          ORIGINAL         |          LEARNT          | Progress |
|           |    Vars  Clauses Literals |    Limit  Clauses Lit/Cl |          |
===============================================================================
===============================================================================
restarts              : 1
conflicts             : 31             (14123 /sec)
decisions             : 49             (0.00 % random) (22323 /sec)
propagations          : 884            (402733 /sec)
conflict literals     : 181            (19.56 % deleted)
Memory used           : 13.00 MB
CPU time              : 0.002195 s

SATISFIABLE
